(set-info :smt-lib-version 2.6)
(set-logic UF)
(set-info :source |Benchmarks from the paper: "Extending Sledgehammer with SMT Solvers" by Jasmin Blanchette, Sascha Bohme, and Lawrence C. Paulson, CADE 2011.  Translated to SMT2 by Andrew Reynolds and Morgan Deters.|)
(set-info :category "industrial")
(set-info :status sat)
(declare-sort S1 0)
(declare-sort S2 0)
(declare-sort S3 0)
(declare-sort S4 0)
(declare-sort S5 0)
(declare-sort S6 0)
(declare-sort S7 0)
(declare-sort S8 0)
(declare-fun f1 () S1)
(declare-fun f2 () S1)
(declare-fun f3 (S4 S3) S1)
(declare-fun f4 (S5 S2) S4)
(declare-fun f5 () S5)
(declare-fun f6 () S5)
(declare-fun f7 () S1)
(declare-fun f8 (S6 S6) S1)
(declare-fun f9 () S6)
(declare-fun f10 (S7 S6) S6)
(declare-fun f11 (S5 S8 S5) S7)
(declare-fun f12 () S8)
(declare-fun f13 () S5)
(declare-fun f14 () S6)
(assert (not (= f1 f2)))
(assert (forall ((?v0 S2) (?v1 S3)) (= (= (f3 (f4 f5 ?v0) ?v1) f1) (and (= (f3 (f4 f6 ?v0) ?v1) f1) (= f7 f1)))))
(assert (not (= (f8 f9 (f10 (f11 f5 f12 f13) f14)) f1)))
(assert (=> (= f7 f1) (= (f8 f9 (f10 (f11 f6 f12 f13) f14)) f1)))
(check-sat)
(exit)
